47 47
1 1
11 19
46 21
22 2
28 11
23 6
27 2
14 22
4 20
7 4
3 13
45 20
24 13
18 18
30 3
17 14
47 15
33 19
44 4
32 14
8 16
43 8
25 22
41 16
34 23
31 6
12 9
15 5
6 17
19 9
29 12
42 7
21 17
2 10
35 1
39 7
26 11
38 23
20 8
13 21
10 24
40 10
36 12
16 18
37 15
5 5
9 3
